WARNING: for repeatability, setting FPU to use double precision
============================[ Problem Statistics ]=============================
|                                                                             |
|  Number of variables:           100                                         |
|  Number of clauses:             449                                         |
|  Parse time:                   0.00 s                                       |
|  Eliminated clauses:           0.00 Mb                                      |
|  Simplification time:          0.00 s                                       |
|                                                                             |
============================[ Search Statistics ]==============================
| Conflicts |          ORIGINAL         |          LEARNT          | Progress |
|           |    Vars  Clauses Literals |    Limit  Clauses Lit/Cl |          |
===============================================================================
|       100 |      99      448     1353 |      164      100      6 |  0.020 % |
===============================================================================
restarts              : 2
conflicts             : 134            (47117 /sec)
decisions             : 162            (0.00 % random) (56962 /sec)
propagations          : 3082           (1083685 /sec)
conflict literals     : 832            (20.61 % deleted)
Memory used           : 13.00 MB
CPU time              : 0.002844 s

SATISFIABLE
